NAME: tsp_19
COMMENT: Random TSP instance
TYPE: TSP
DIMENSION: 50
EDGE_WEIGHT_TYPE: EUC_2D
NODE_COORD_SECTION
1 972 717
2 486 882
3 274 978
4 550 212
5 781 42
6 57 221
7 536 917
8 402 94
9 230 386
10 440 98
11 432 958
12 991 403
13 839 622
14 0 158
15 826 50
16 658 38
17 980 632
18 546 861
19 665 20
20 522 914
21 828 389
22 114 465
23 552 245
24 792 107
25 193 282
26 531 839
27 1000 307
28 985 492
29 266 341
30 908 320
31 347 205
32 247 920
33 702 329
34 752 240
35 831 478
36 344 522
37 912 737
38 642 37
39 254 349
40 706 95
41 75 506
42 115 639
43 500 716
44 184 669
45 572 775
46 661 484
47 305 888
48 680 573
49 748 935
50 955 218
